14,1	0,0	13,6	10,9	0,0	0,0	0,0	0,0	0,0	15,6
19,6	12,5	0,0	11,9	13,7	0,0	0,0	5,3	0,0	0,0
0,0	0,0	13,9	0,0	15,8	6,5	0,0	0,0	10,7	0,0
18,9	0,0	18,3	0,0	0,0	0,0	12,3	0,0	0,0	0,0
0,0	12,5	0,0	6,3	8,0	0,0	0,0	19,9	0,0	0,0
0,0	14,5	16,3	0,0	10,1	13,6	0,0	0,0	7,8	0,0
0,0	17,0	0,0	7,1	0,0	0,0	6,1	0,0	0,0	16,8
16,8	0,0	11,5	0,0	0,0	0,0	0,0	0,0	0,0	11,6
0,0	11,0	0,0	17,4	18,5	0,0	0,0	16,9	0,0	0,0
0,0	0,0	12,3	0,0	0,0	9,2	16,9	0,0	0,0	15,2
									
3,2	2,7	3,8	4,5	3,6	4,7	4,6	3,4	4,2	4,4
